(declare-const a Real)
(declare-const b Real)
(declare-const c Real)
(assert (= (+ a b c) 3))
(assert (> a 0))
(assert (> b 0))
(assert (> c 0))
(assert (not (<= (+ (* -1 (pow a 6)) (* -2 (pow b 6)) (* (pow a 2) (+ (* (/ 1 2) (pow a 4)) (* (/ 1 2) (pow b 4)))) (* 2 a (pow b 5))) 0)))
(check-sat)
(get-model)
(exit)